solution status: gap limit reached
objective value:                          34203.22405
y#1                                                 1 	(obj:5700)
y#2                                                 1 	(obj:5700)
y#5                                                 1 	(obj:5700)
y#6                                                 1 	(obj:5700)
y#9                                                 1 	(obj:5700)
y#10                                                1 	(obj:5700)
x#1#5                                               1 	(obj:0.01122)
x#2#1                                               1 	(obj:0.04522)
x#3#5                                               1 	(obj:0.04709)
x#4#6                                               1 	(obj:0.06307)
x#5#9                                               1 	(obj:0.04233)
x#6#2                                               1 	(obj:0.06817)
x#7#2                                               1 	(obj:0.01666)
x#8#9                                               1 	(obj:0.0578)
x#9#5                                               1 	(obj:0.0289)
x#10#9                                              1 	(obj:0.01615)
x#11#10                                             1 	(obj:0.05542)
x#12#10                                             1 	(obj:0.0119)
x#13#6                                              1 	(obj:0.01479)
x#14#9                                              1 	(obj:0.05831)
x#15#10                                             1 	(obj:0.04522)
x#16#6                                              1 	(obj:0.03502)
x#17#1                                              1 	(obj:0.11254)
x#18#10                                             1 	(obj:0.03213)
x#19#6                                              1 	(obj:0.04641)
x#20#6                                              1 	(obj:0.06188)
x#21#6                                              1 	(obj:0.00918)
x#22#1                                              1 	(obj:0.09078)
x#23#6                                              1 	(obj:0.01037)
x#24#5                                              1 	(obj:0.10013)
x#25#2                                              1 	(obj:0.06953)
x#26#10                                             1 	(obj:0.02652)
x#27#6                                              1 	(obj:0.04437)
x#28#10                                             1 	(obj:0.02108)
x#29#2                                              1 	(obj:0.01513)
x#30#1                                              1 	(obj:0.07548)
x#31#9                                              1 	(obj:0.01513)
x#32#5                                              1 	(obj:0.02448)
x#33#1                                              1 	(obj:0.14501)
x#34#9                                              1 	(obj:0.02465)
x#35#2                                              1 	(obj:0.05899)
x#36#1                                              1 	(obj:0.13158)
x#37#2                                              1 	(obj:0.0561)
x#38#1                                              1 	(obj:0.00918)
x#39#1                                              1 	(obj:0.03451)
x#40#5                                              1 	(obj:0.08041)
x#41#10                                             1 	(obj:0.04998)
x#42#2                                              1 	(obj:0.06137)
x#43#10                                             1 	(obj:0.04743)
x#44#1                                              1 	(obj:0.06732)
x#45#9                                              1 	(obj:0.04386)
x#46#2                                              1 	(obj:0.06936)
x#47#9                                              1 	(obj:0.01411)
x#48#1                                              1 	(obj:0.0306)
x#49#9                                              1 	(obj:0.04454)
x#50#9                                              1 	(obj:0.03723)
x#51#6                                              1 	(obj:0.00459)
x#52#10                                             1 	(obj:0.06137)
x#53#5                                              1 	(obj:0.04743)
x#54#5                                              1 	(obj:0.04522)
x#55#2                                              1 	(obj:0.02414)
x#56#9                                              1 	(obj:0.02448)
x#57#9                                              1 	(obj:0.02873)
x#58#5                                              1 	(obj:0.03485)
x#59#5                                              1 	(obj:0.0323)
x#60#10                                             1 	(obj:0.02278)
x#61#2                                              1 	(obj:0.01649)
x#62#10                                             1 	(obj:0.01411)
x#63#10                                             1 	(obj:0.05287)
x#64#6                                              1 	(obj:0.0816)
x#65#1                                              1 	(obj:0.03383)
x#66#1                                              1 	(obj:0.0799)
x#67#6                                              1 	(obj:0.06392)
x#68#2                                              1 	(obj:0.08347)
x#69#6                                              1 	(obj:0.03655)
x#70#5                                              1 	(obj:0.05678)
